Solving original (integer) problem with strategy gdp.binary_multiplication...
--- Job model.gms Start 02/19/26 00:01:13 52.2.0 d8e408be LEX-LEG x86 64bit/Linux
--- Applying:
    /package/gams/52.2/gmsprmun.txt
--- GAMS Parameters defined
    Input /local/scratch/a/sgusev/repos/k_means/data/gams_gurobi_gdp.binary_multiplication/no_mode/2026-02-19_00-01-13/original/model.gms
    Output /local/scratch/a/sgusev/repos/k_means/data/gams_gurobi_gdp.binary_multiplication/no_mode/2026-02-19_00-01-13/original/output.lst
    ScrDir /local/scratch/a/sgusev/repos/k_means/data/gams_gurobi_gdp.binary_multiplication/no_mode/2026-02-19_00-01-13/original/225a/
    SysDir /package/gams/52.2/
    CurDir /local/scratch/a/sgusev/repos/k_means/data/gams_gurobi_gdp.binary_multiplication/no_mode/2026-02-19_00-01-13/original/
    LogOption 3
    AppendLog 1
Licensee: David Bernal / SECQUOIA Research Group         G251008+0003Ac-GEN
          Purdue University, Davidson School of Chemical EngineeringDCE4838
          225a/gamslice.dat
          5a82958a-fbca-4a23
          node:66820903 mem:995 cores:48 ipport:57327 v:2                  
          Evaluation license: Not for commercial or production use
          The time-limited license stops working on : Jun 30, 2027
System information: 48 physical cores and 995 Gb physical memory detected
GAMS 52.2.0   Copyright (C) 1987-2025 GAMS Development. All rights reserved
--- Starting compilation
--- model.gms(265) 2 Mb
--- $echo File /local/scratch/a/sgusev/repos/k_means/data/gams_gurobi_gdp.binary_multiplication/no_mode/2026-02-19_00-01-13/original/gurobi.opt
--- model.gms(468) 2 Mb
--- Starting execution: elapsed 0:00:00.006
--- model.gms(274) 3 Mb
--- Generating MINLP model GAMS_MODEL
--- model.gms(278) 5 Mb
---   64 rows  73 columns  307 non-zeroes
---   720 nl-code  240 nl-non-zeroes
---   48 discrete-columns
--- Range statistics (absolute non-zero finite values)
--- RHS       [min, max] : [ 1.000E+00, 1.000E+00] - Zero values observed as well
--- Bound     [min, max] : [ 1.000E+00, 7.200E+01] - Zero values observed as well
--- Matrix    [min, max] : [ 2.344E-01, 1.695E+00] - Zero values observed as well
--- model.gms(278) 3 Mb
--- Executing GUROBI (Solvelink=5): elapsed 0:00:00.009
Reading parameter(s) from "/local/scratch/a/sgusev/repos/k_means/data/gams_gurobi_gdp.binary_multiplication/no_mode/2026-02-19_00-01-13/original/gurobi.opt"
>>  NonConvex 2
>>  Threads 1
>>  MIPGap 1e-06
>>  MIPGapAbs 1e-10
>>  FeasibilityTol 1e-06
>>  OptimalityTol 1e-06
>>  IntFeasTol 1e-05
Finished reading from "/local/scratch/a/sgusev/repos/k_means/data/gams_gurobi_gdp.binary_multiplication/no_mode/2026-02-19_00-01-13/original/gurobi.opt"

... GRB_LICENSE_FILE = /local/scratch/a/sgusev/gurobi.lic

    Gurobi           52.2.0 d8e408be Dec 8, 2025           LEG x86 64bit/Linux    

... GAMS/Gurobi Link license.
... GMO Q Extraction (ThreePass): 0.00s

    Gurobi Optimizer version 13.0.0 build v13.0.0rc1 (linux64 - "Oracle Linux Server 9.7")
    
    CPU model: AMD EPYC 7643 48-Core Processor, instruction set [SSE2|AVX|AVX2]
    Thread count: 48 physical cores, 96 logical processors, using up to 1 threads
    
    Non-default parameters:
    TimeLimit  300
    MIPGap  1e-06
    LogToConsole  0
    NonConvex  2
    Threads  1
    
    Optimize a model with 63 rows, 120 columns and 102 nonzeros (Min)
    Model fingerprint: 0x34006cc0
    Model has 12 linear objective coefficients
    Model has 48 general nonlinear constraints (192 nonlinear terms)
    Variable types: 72 continuous, 48 integer (0 binary)
    Coefficient statistics:
      Matrix range     [1e+00, 1e+00]
      Objective range  [1e+00, 1e+00]
      Bounds range     [1e+00, 7e+01]
      RHS range        [1e+00, 1e+00]
      NLCon coe range  [1e-02, 1e+00]
    Presolve model has 48 nlconstr
    Added 336 variables to disaggregate expressions
    Presolve removed 48 rows and 0 columns
    Presolve time: 0.00s
    Presolved: 831 rows, 505 columns, 1926 nonzeros
    Presolved model has 144 bilinear constraint(s)
    
    Solving non-convex MIQCP to global optimality
    
    Variable types: 457 continuous, 48 integer (48 binary)
    Found heuristic solution: objective 11.0255242
    
    Root relaxation: objective 0.000000e+00, 163 iterations, 0.00 seconds (0.00 work units)
    
        Nodes    |    Current Node    |     Objective Bounds      |     Work
     Expl Unexpl |  Obj  Depth IntInf | Incumbent    BestBd   Gap | It/Node Time
    
         0     0    0.00000    0   76   11.02552    0.00000   100%     -    0s
         0     0    0.00000    0  104   11.02552    0.00000   100%     -    0s
         0     0    0.00000    0  104   11.02552    0.00000   100%     -    0s
         0     0    0.00000    0  147   11.02552    0.00000   100%     -    0s
         0     0    0.00000    0  148   11.02552    0.00000   100%     -    0s
         0     0    0.00000    0  151   11.02552    0.00000   100%     -    0s
         0     0    0.00000    0  164   11.02552    0.00000   100%     -    0s
         0     0    0.00000    0  160   11.02552    0.00000   100%     -    0s
         0     0    0.00000    0  160   11.02552    0.00000   100%     -    0s
         0     0    0.00000    0  160   11.02552    0.00000   100%     -    0s
    H    0     0                       8.6535847    0.00000   100%     -    0s
    H    0     0                       8.1701174    0.00000   100%     -    0s
         0     2    0.00000    0  160    8.17012    0.00000   100%     -    0s
    H    2     2                       7.2615849    0.00000   100%  21.5    0s
    H    2     2                       6.5294975    0.00000   100%  21.5    0s
    H    3     3                       6.4387507    0.00000   100%  20.0    0s
    H    3     3                       6.3523601    0.00000   100%  20.0    0s
    H    3     3                       4.8976167    0.00000   100%  20.0    0s
    H    4     4                       4.3152212    0.00000   100%  15.2    0s
    H    8     8                       4.3152212    0.00000   100%  14.0    0s
    H   13    13                       4.2556161    0.00000   100%  13.8    0s
    H   17    17                       4.1965777    0.00000   100%  16.5    0s
    H   17    17                       3.9732037    0.00000   100%  16.5    0s
    H   22    22                       2.7555473    0.00000   100%  16.7    0s
    H  139    72                       2.7555473    0.00000   100%  15.2    0s
    H  762   393                       2.5795050    0.00000   100%  19.7    1s
    H  762   373                       2.5685425    0.00000   100%  19.7    1s
    H  762   354                       2.5645782    0.00000   100%  19.7    1s
    H  762   336                       2.5641619    0.00000   100%  19.7    1s
    H  794   335                       2.5641619    0.00000   100%  20.1    1s
    H  905   315                       2.5641619    0.00000   100%  20.5    1s
    H  947   320                       2.5641619    0.00000   100%  20.4    1s
    H 1602   404                       2.5134794    0.00000   100%  20.1    2s
    H 1625   401                       2.5134794    0.00000   100%  20.1    2s
    H 1625   397                       2.4892973    0.00000   100%  20.1    2s
    H 1640   397                       2.3149471    0.00000   100%  20.3    2s
    H 1640   397                       2.3147717    0.00000   100%  20.3    2s
    H 1755   426                       2.2347451    0.00000   100%  20.5    2s
    H 1755   425                       2.2191341    0.00000   100%  20.5    2s
    H 1755   425                       2.2177805    0.00000   100%  20.5    2s
    H 1755   425                       2.2177542    0.00000   100%  20.5    2s
    H 2952   729                       2.1854624    0.22381  89.8%  21.6    4s
      3897   952     cutoff   30         2.18546    0.46582  78.7%  20.9    5s
    H 5265  1158                       2.1854608    0.82537  62.2%  20.4    6s
    H 5721  1161                       2.1579431    0.92898  57.0%  20.5    6s
    H 7146  1341                       2.1579431    1.18661  45.0%  19.6    7s
      9002   856 infeasible   42         2.15794    1.60752  25.5%  19.2   10s
    *13500  2060             144       2.1579313    1.88270  12.8%  16.3   14s
     14336  2270    2.05575   54   84    2.15793    1.89218  12.3%  16.0   15s
     19566  3326     cutoff   49         2.15793    1.92985  10.6%  14.6   20s
     25724  4362    2.12661   59  108    2.15793    1.96032  9.16%  13.6   25s
     32434  5074     cutoff   54         2.15793    1.97968  8.26%  12.6   30s
     39575  5947    2.09276   57   84    2.15793    1.99638  7.49%  11.9   35s
     46536  6344    2.11629   60   72    2.15793    2.01212  6.76%  11.4   40s
     53252  6532     cutoff   62         2.15793    2.02760  6.04%  11.0   45s
     59767  7109    2.10254   63   96    2.15793    2.04007  5.46%  10.7   50s
     65502  7674     cutoff   76         2.15793    2.04963  5.02%  10.6   55s
     71231  8299    2.13681   64   83    2.15793    2.05898  4.59%  10.5   60s
     77805  8861    2.12117   51   84    2.15793    2.07004  4.07%  10.2   65s
     84869 10171     cutoff   65         2.15793    2.07513  3.84%   9.9   70s
     91521 10521    2.12333   77   84    2.15793    2.08568  3.35%   9.7   75s
     98702 11084     cutoff   70         2.15793    2.09429  2.95%   9.5   80s
     105492 11876    2.14962   74   96    2.15793    2.10253  2.57%   9.3   85s
     112635 13439    2.11871   70  108    2.15793    2.10807  2.31%   9.1   90s
     119580 14422 infeasible   68         2.15793    2.11243  2.11%   8.9   95s
     126730 15332     cutoff   75         2.15793    2.11604  1.94%   8.8  100s
     133235 16237     cutoff   78         2.15793    2.11861  1.82%   8.6  105s
     140388 17222 infeasible   72         2.15793    2.12089  1.72%   8.5  110s
     147184 17896    2.15538   85   84    2.15793    2.12281  1.63%   8.4  115s
     154304 18452    2.15318   82   96    2.15793    2.12452  1.55%   8.3  120s
     161428 19050    2.15244   77   96    2.15793    2.12595  1.48%   8.2  125s
     168283 19649     cutoff   67         2.15793    2.12729  1.42%   8.1  130s
     174791 20135     cutoff   77         2.15793    2.12857  1.36%   8.0  135s
     180878 20886    2.15737   98   85    2.15793    2.12958  1.31%   8.0  140s
     187119 21471    2.13276   70   96    2.15793    2.13076  1.26%   8.0  145s
     193478 22256     cutoff   82         2.15793    2.13177  1.21%   8.0  150s
     199271 23155    2.15691   78   60    2.15793    2.13263  1.17%   7.9  155s
     205739 24257    2.14874   76   71    2.15793    2.13346  1.13%   7.9  160s
     211929 24907     cutoff   89         2.15793    2.13432  1.09%   7.9  165s
     218368 25526     cutoff   94         2.15793    2.13516  1.06%   7.9  170s
     225357 26171    2.15788   91   84    2.15793    2.13605  1.01%   7.8  175s
     232595 27093    2.14127   84   96    2.15793    2.13686  0.98%   7.7  180s
     239715 28161     cutoff   77         2.15793    2.13755  0.94%   7.7  185s
     247157 28893    2.14322   70   72    2.15793    2.13818  0.92%   7.6  190s
     254242 30238     cutoff   89         2.15793    2.13878  0.89%   7.6  195s
     261533 30831    2.14937   76   96    2.15793    2.13936  0.86%   7.5  200s
     268199 31849     cutoff   85         2.15793    2.13986  0.84%   7.5  205s
     275582 32916    2.15599   87   84    2.15793    2.14044  0.81%   7.4  210s
     282874 33798     cutoff   75         2.15793    2.14102  0.78%   7.4  215s
     289991 34681     cutoff   84         2.15793    2.14149  0.76%   7.3  220s
     297321 35583     cutoff   73         2.15793    2.14197  0.74%   7.3  225s
     304470 36246    2.15439   79   84    2.15793    2.14245  0.72%   7.2  230s
     311911 36945    2.15715   90   84    2.15793    2.14291  0.70%   7.2  235s
     318999 37389     cutoff   82         2.15793    2.14334  0.68%   7.2  240s
     326397 37791     cutoff   89         2.15793    2.14379  0.66%   7.1  245s
     333417 38207    2.14847   70   72    2.15793    2.14418  0.64%   7.1  250s
     340417 38605     cutoff   78         2.15793    2.14459  0.62%   7.0  255s
     347921 39073     cutoff   86         2.15793    2.14501  0.60%   7.0  260s
     354970 39656    2.15773   83   59    2.15793    2.14535  0.58%   7.0  265s
     362455 40183    2.15617   88   72    2.15793    2.14570  0.57%   7.0  270s
     369590 40890    2.14601   80  107    2.15793    2.14600  0.55%   6.9  275s
     377036 41412    2.15785   85   60    2.15793    2.14632  0.54%   6.9  280s
     384500 42162    2.15512   86   95    2.15793    2.14665  0.52%   6.9  285s
     391650 42388    2.15297   74   72    2.15793    2.14695  0.51%   6.8  290s
     399151 43069    2.15688   95   79    2.15793    2.14722  0.50%   6.8  295s
    
    Cutting planes:
      Gomory: 2
      Implied bound: 9
      MIR: 10
      Flow cover: 25
      RLT: 4
    
    Explored 406324 nodes (2755126 simplex iterations) in 300.00 seconds (206.92 work units)
    Thread count was 1 (of 96 available processors)
    
    Solution count 10: 2.15793 2.15794 2.18546 ... 2.31495
    
    Time limit reached
    Warning: max constraint violation (1.9558e-06) exceeds tolerance
    Warning: max general constraint violation (1.9558e-06) exceeds tolerance
    Best objective 2.157931269382e+00, best bound 2.147497772897e+00, gap 0.4835%
    
    User-callback calls 406365, time in user-callback 0.02 sec

--- Reading solution for model GAMS_MODEL
***
*** Solver did not provide marginals for model GAMS_MODEL
***
--- Executing after solve: elapsed 0:05:00.071
--- model.gms(281) 3 Mb
--- model.gms(468) 5 Mb
--- Putfile results /local/scratch/a/sgusev/repos/k_means/data/gams_gurobi_gdp.binary_multiplication/no_mode/2026-02-19_00-01-13/original/results.dat
--- Putfile statresults /local/scratch/a/sgusev/repos/k_means/data/gams_gurobi_gdp.binary_multiplication/no_mode/2026-02-19_00-01-13/original/resultsstat.dat
*** Status: Normal completion
--- Job model.gms Stop 02/19/26 00:06:13 elapsed 0:05:00.072
Original problem solved. Time taken: 300.58613085746765 seconds
Original objective value: 2.157931269382448
